c Lingeling SAT Solver
c 
c Version ala b02aa1a04343558c4252b5f4a723be021964f652
c 
c Copyright (C) 2010-2012 Armin Biere JKU Linz Austria.
c All rights reserved.
c 
c released Sat Oct 13 14:05:26 CEST 2012
c compiled Sat Feb 16 02:48:12 EST 2013
c 
c gcc (Debian 4.4.5-8) 4.4.5
c -Wall -O3 -DNLGLOG -DNDEBUG -DNCHKSOL -DNLGLPICOSAT 
c Linux greencar2 2.6.32-5-amd64 x86_64
c 
c reading input file p59.cnf
c no embedded options
c found 'p cnf 231033 714550' header
c read 231033 variables, 714550 clauses, 1486649 literals in 0.0 seconds
c
c feature vars 231033
c feature lits.total 1486649
c feature lits.pos 792383
c feature lits.neg 694266
c feature clauses.total 714550
c feature clauses.unit 86311
c feature clauses.bin 503579
c feature clauses.trn 123260
c feature clauses.lrg 1400
c feature cog.val.min 1
c feature cog.val.avg 102924
c feature cog.val.max 221957
c feature cog.var.min 1
c feature cog.var.avg 115517
c feature cog.var.max 231032
c
c
c --abstime=0
c --acts=2
c --actavgmax=120
c --actstdmin=20
c --actstdmax=80
c --agile=23
c --bias=2
c --block=1
c --blkrtc=0
c --blkclslim=2000
c --blkocclim=2000
c --blkmaxeff=2147483647
c --blkmineff=10000000
c --blkreleff=20
c --card=0
c --cce=3
c --ccemaxeff=100000000
c --ccemineff=5000000
c --ccereleff=3
c --check=0
c --cgrclsr=1
c --cgrmaxority=20
c --cgrmaxeff=8000000
c --cgrmineff=200000
c --cgreleff=1
c --cgrexteq=1
c --cgrextand=1
c --cgrextunits=1
c --cgrextite=1
c --cgrextxor=1
c --cliff=1
c --cliffreleff=8
c --cliffmineff=10000000
c --cliffmaxeff=100000000
c --compact=0
c --decompose=1
c --defragint=10000000
c --defragfree=50
c --elim=1
c --elmrtc=0
c --elmblk=1
c --elmclslim=1000
c --elmocclim=1000
c --elmaxeff=100000000
c --elmineff=5000000
c --elmreleff=10
c --sleeponabort=0
c --exitonabort=0
c --flipping=1
c --flipint=2
c --flipdur=50
c --fliptop=1
c --force=0
c --gauss=1
c --gaussextrall=1
c --gaussmaxor=20
c --gaussexptrn=1
c --gaussmaxeff=50000000
c --gaussmineff=2000000
c --gaussreleff=2
c --gluescale=2
c --gluekeep=0
c --inprocessing=1
c --cintinc=10000
c --irrlim=20
c --lift=1
c --lftmaxeff=20000000
c --lftmineff=500000
c --lftreleff=6
c --lhbr=1
c --lkhd=1
c --clim=-1
c --mocint=1000
c --move=2
c --log=-1
c --otfs=1
c --phase=0
c --phaseneginit=0
c --plain=0
c --probe=1
c --prbasicmaxeff=100000000
c --prbasicmineff=1000000
c --prbasicreleff=10
c --prbasic=1
c --prbasicroundlim=9
c --queuemergelim=10000
c --queuefactor=833
c --queueinc=20
c --rmincpen=4
c --seed=0
c --smallirr=90
c --smallve=1
c --smallvevars=12
c --randec=1
c --randecint=1000
c --redfixed=0
c --redlbound=0
c --redlexpfac=10
c --redldoutfac=0
c --redloutinc=10000
c --redlinit=1000
c --redlinc=1000
c --redinoutinc=100
c --redlmininc=10
c --redlmaxinc=200
c --redlminrel=10
c --redlmaxrel=300
c --redlminabs=500
c --redlmaxabs=1000000
c --reduce=1
c --restart=2
c --restartint=5
c --rstinoutinc=110
c --simplify=1
c --simpdelay=100
c --simpen=4
c --sizepen=1000000
c --sizemaxpen=3
c --sortlits=0
c --syncint=111111
c --termint=122222
c --ternres=1
c --ternresrtc=0
c --trnrmineff=4000000
c --trnrmaxeff=40000000
c --trnreleff=10
c --transred=1
c --trdmineff=100000
c --trdmaxeff=2000000
c --trdreleff=10
c --unhide=1
c --unhdextstamp=1
c --unhdhbr=0
c --unhdmaxeff=20000000
c --unhdmineff=1000000
c --unhdreleff=4
c --unhdlnpr=3
c --unhdroundlim=5
c --verbose=1
c --witness=1
c [limits] no conflict limit
c [limits] simplification delayed by 100 to 100 conflicts
c 
c  seconds         irredundant          redundant clauses agility   height
c          variables clauses conflicts large binary ternary    glue         MB
c 
c *    0.0  126860   530373         0       0      0     0  65  0.0   0.0   42
c [cut-width] 176785, max 275805, min4 114976 at 75%, min10 35345 at 89%
c [decision-order] bias 1, old 1
c [queue-schedule-all-variables]
c s    0.0  126860   530373         0       0      0     0  65  0.0   0.0   42
c [simplification-1] limit hit at 100 conflicts
c [simplification-1] simplification penalty of 4
c [ternres-1] limit 4000000 with penalty 0 = 0 + 0
c [ternres-1] all 126860 free variables schedulable
c [ternres-1] 0 ternary resolvents (0 bin, 0 trn)
c [ternres-1] 16620 variables remain 13% (110240 retained)
c [gauss-1] limit 2000000 penalty 0 = 0 + 0
c [gauss-1] extracted 167692 xors of average arity 2.0
c [gauss-1] connected 335386 occurrences of 100529 variables (average 3.3)
c [gauss-1] limit 2000000 penalty 0 = 0 + 0
c d    1.4   58268   263189       100     100      0     0  52  5.0 266.4   21
c [gauss-1] exported 0 unary, 2 binary and 0 ternary equations
c G    1.4   58268   263189       100     100      0     0  52  5.0 266.4   21
c [basicprobe-1] limit 1000000 penalty 0 = 0 + 0
c [basicprobe-1-0] 4371 probes remain 8% after last round
c [basicprobe-1-0] 1 units = 1 failed (100%) + 0 lifted (0%)
c [basicprobe-1-0] removed 1 variables, found 2935 hbrs
c p    1.7   58267   263189       100     100   2935     0  52  5.0 266.4   25
c [cgrclsr-1] limit 200000 penalty 0 = 0 + 0
c [cgrclsr-1] all 58267 free variables schedulable
c [cgrclsr-1] fully completed congruence closure
c [lift-1] limit 500000 with penalty 0 = 0 + 0
c [lift-1] using 58267 probes 100%
c [lift-1] 58233 variables remain 100% (33 retained)
c [lift-1] removed 1 variables
c ^    2.1   58266   263183       100     100   2947     0  52  5.0 266.4   21
c [cliff-1] limit of 10000000 steps penalty 0 = 0 + 0
c [cliff-1] failed 0, lifted 0
c [unhide-1] limit 1000000 with penalty 0 = 0 + 0
c [unhide-1-1] 0 units, 1 failed, 20326 tauts, 0 hbrs, 46 literals
c u    2.9   58262   242857       100     100  14252     0  52  5.0 266.4   25
c [transred-1] limit 100000 with penalty 0 = 0 + 0
c t    2.9   58262   242856       100     100  14245     0  52  5.0 266.4   25
c [block-1] scheduling all variables this time
c [block-1] scheduled 58262 variables 100%
c [block-1] limit of 10000000 steps penalty 0 = 0 + 0
c [block-1] fully completed blocked clause elimination
c [block-1] transition to [ all 0 rem 0 ] state
c [block-1] eliminated 4776 blocked clauses
c k    3.2   58262   238061       100     100  14245  4776  52  5.0 266.4   21
c [cce-1] scheduling all variables this time
c [cce-1] limit of 10000000 steps penalty 0 = 0 + 0
c [cce-1] incomplete covered clause elimination 52175 not tried 90%
c [cce-1] transition to [ all 1 rem 1 ] state
c [cce-1] eliminated 138 covered clauses
c E    3.9   58261   237923       100     100  27308  4776  52  5.0 266.4   21
c [elim-1] scheduling all variables this time
c [elim-1] scheduled 58261 variables 100%
c [elim-1] limit of 5000000 steps penalty 0 = 0 + 0
c [elim-1] incomplete variable elimination 43258 not tried 74%
c [elim-1] transition to [ all 1 rem 1 ] state
c [elim-1] eliminated 6558 = 11% variables out of 58261
c e    5.5   51703   233978       100      55   9035   659  52  5.0 266.4   21
c [phase-1] phase bias: 1407 positive 13%, 9547 negative 87%
c [simplification-1] removed 75157 variables 59%
c [simplification-1] limit increments divided by 30
c [simplification-1] arithmetic increase of conflict limit interval by 333
c [simplification-1] new irredundant limit 2325750
c [simplification-1] new conflict limit 433
c [simplification-1] simplification penalty reduced to 3
c R    5.7   51703   233978       160     109   9037   662  19  5.7 289.5   25
c R    5.8   51703   233978       410     332   9043   681   9  5.5 230.7   25
c [simplification-2] limit hit at 433 conflicts
c [simplification-2] simplification penalty of 3
c [ternres-2] limit 2000000 with penalty 1 = 1 + 0
c [ternres-2] 6755 schedulable variables 13%
c [ternres-2] 4 ternary resolvents (0 bin, 4 trn)
c [ternres-2] fully completed ternary resolution
c T    5.9   51703   233978       433     349   9044   690   6  5.4 234.6   26
c [gauss-2] limit 2000000 penalty 0 = 0 + 0
c [gauss-2] extracted 1036 xors of average arity 3.0
c [gauss-2] connected 3108 occurrences of 1729 variables (average 1.8)
c [gauss-2] limit 2000000 penalty 0 = 0 + 0
c [gauss-2] fully completed
c [gauss-2] exported 0 unary, 0 binary and 0 ternary equations
c G    6.1   51703   233978       433     349   9044   690   6  5.4 234.6   21
c [basicprobe-2] limit 1000000 penalty 0 = 0 + 0
c [basicprobe-2-0] 4109 probes remain 8% after last round
c [basicprobe-2-0] removed 0 variables, found 1330 hbrs
c p    6.4   51703   233978       433     349  10374   687   6  5.4 234.6   25
c [cgrclsr-2] limit 100000 penalty 1 = 1 + 0
c [cgrclsr-2] all 51703 free variables schedulable
c [cgrclsr-2] fully completed congruence closure
c [lift-2] limit 500000 with penalty 0 = 0 + 0
c [lift-2] using 51674 probes 100%
c [lift-2] 51635 variables remain 100% (68 retained)
c [cliff-2] limit of 5000000 steps penalty 1 = 1 + 0
c [cliff-2] failed 1, lifted 0
c K    7.0   51701   233978       433     349  10867   686   6  5.4 234.6   25
c [unhide-2] limit 1000000 with penalty 0 = 0 + 0
c [unhide-2-2] 0 units, 0 failed, 1788 tauts, 0 hbrs, 143 literals
c u    7.2   51701   233960       433     346   9081   687   6  5.4 234.6   25
c [transred-3] limit 100000 with penalty 0 = 0 + 0
c t    7.2   51701   233956       433     346   9079   687   6  5.4 234.6   25
c [block-2] scheduling all variables this time
c [block-2] scheduled 51701 variables 100%
c [block-2] limit of 10000000 steps penalty 0 = 0 + 0
c [block-2] fully completed blocked clause elimination
c [block-2] transition to [ all 0 rem 0 ] state
c [block-2] eliminated 2 blocked clauses
c k    7.5   51701   233954       433     346   9081   687   6  5.4 234.6   21
c [cce-2] 48609 variables 94% will be scheduled this time
c [cce-2] limit of 10000000 steps penalty 0 = 0 + 0
c [cce-2] 48054 variables 93% remain to be tried next time
c [cce-2] transition to [ all 0 rem 1 ] state
c [cce-2] eliminated 372 covered clauses
c E    8.0   51700   233582       433     346   9505   687   6  5.4 234.6   21
c [elim-2] 43190 variables 84% will be scheduled this time
c [elim-2] scheduled 43190 variables 84%
c [elim-2] limit of 5000000 steps penalty 0 = 0 + 0
c [elim-2] 33176 variables 64% remain to be tried next time
c [elim-2] transition to [ all 0 rem 1 ] state
c [elim-2] eliminated 1271 = 2% variables out of 51700
c e    9.7   50429   233004       433     342   7011   684   6  5.4 234.6   21
c [phase-2] phase bias: 2 positive 100%, 0 negative 0%
c [simplification-2] removed 1274 variables 2%
c [simplification-2] limit increments divided by 2
c [simplification-2] arithmetic increase of conflict limit interval by 5000
c [simplification-2] new irredundant limit 2325750
c [simplification-2] new conflict limit 5766
c [simplification-2] simplification penalty reduced to 2
c R   10.2   50429   233004       976     831   7024   724   5  6.9 242.6   26
c 
c  seconds         irredundant          redundant clauses agility   height
c          variables clauses conflicts large binary ternary    glue         MB
c 
c -   10.4   50429   233004      1197     505   7033   757   5  6.5 218.6   26
c R   11.2   50429   233004      2266    1448   7064   842   3  6.1 224.4   26
c -   12.7   50429   233004      4211    1549   7139  1038   6  6.0 234.1   26
c R   13.1   50429   233004      5173    2482   7141  1064   6  7.4 276.3   26
c [simplification-3] limit hit at 5766 conflicts
c [simplification-3] simplification penalty of 2
c [ternres-3] limit 4000000 with penalty 0 = 0 + 0
c [ternres-3] all 50429 free variables schedulable
c [ternres-3] 313 ternary resolvents (5 bin, 308 trn)
c [ternres-3] fully completed ternary resolution
c T   13.7   50429   233004      5766    2945   7182  1455   3  7.2 267.6   26
c [gauss-3] limit 1000000 penalty 1 = 1 + 0
c [gauss-3] extracted 495 xors of average arity 3.0
c [gauss-3] connected 1485 occurrences of 1005 variables (average 1.5)
c [gauss-3] limit 1000000 penalty 1 = 1 + 0
c [gauss-3] fully completed
c [gauss-3] exported 0 unary, 0 binary and 0 ternary equations
c G   13.9   50429   233004      5766    2945   7182  1455   3  7.2 267.6   21
c [basicprobe-3] limit 500000 penalty 1 = 1 + 0
c [basicprobe-3-0] 3790 probes remain 8% after last round
c [basicprobe-3-0] removed 0 variables, found 545 hbrs
c p   14.1   50429   233004      5766    2945   7727  1449   3  7.2 267.6   26
c [cgrclsr-3] limit 72901 based on 583208 irredundant literals
c [cgrclsr-3] all 50429 free variables schedulable
c [cgrclsr-3] fully completed congruence closure
c [lift-3] limit 250000 with penalty 1 = 1 + 0
c [lift-3] using 50363 probes 100%
c [lift-3] 50339 variables remain 100% (90 retained)
c [cliff-3] limit of 10000000 steps penalty 0 = 0 + 0
c [cliff-3] failed 0, lifted 0
c [unhide-3] limit 1000000 with penalty 0 = 0 + 0
c [unhide-3-3] 0 units, 0 failed, 1854 tauts, 0 hbrs, 1297 literals
c u   15.2   50429   231168      5766    2924   8397  1442   3  7.2 267.6   26
c [transred-5] limit 672997 with penalty 0 = 0 + 0
c t   15.3   50429   231163      5766    2924   8361  1442   3  7.2 267.6   26
c [block-3] scheduling all variables this time
c [block-3] scheduled 50429 variables 100%
c [block-3] limit of 10000000 steps penalty 0 = 0 + 0
c [block-3] fully completed blocked clause elimination
c [block-3] transition to [ all 0 rem 0 ] state
c [block-3] eliminated 0 blocked clauses
c [cce-3] scheduling all variables this time
c [cce-3] limit of 10000000 steps penalty 0 = 0 + 0
c [cce-3] 46495 variables 92% remain to be tried next time
c [cce-3] transition to [ all 1 rem 1 ] state
c [cce-3] eliminated 322 covered clauses
c E   16.2   50429   230841      5766    2924   8803  1440   3  7.2 267.6   21
c [elim-3] scheduling all variables this time
c [elim-3] scheduled 50429 variables 100%
c [elim-3] limit of 5000000 steps penalty 0 = 0 + 0
c [elim-3] 32410 variables 64% remain to be tried next time
c [elim-3] transition to [ all 1 rem 1 ] state
c [elim-3] eliminated 407 = 1% variables out of 50429
c e   17.8   50022   230472      5766    2907   7760  1425   3  7.2 267.6   21
c [simplification-3] removed 407 variables 0%
c [simplification-3] no reduction of limit increments
c [simplification-3] arithmetic increase of conflict limit interval by 10000
c [simplification-3] new irredundant limit 2325750
c [simplification-3] new conflict limit 21099
c [simplification-3] simplification penalty reduced to 1
c -   19.7   50022   230472      8249    2531   7840  1647   6  7.3 255.8   26
c 1   20.9   50022   230472     10221    4329   7877  1770   5  7.6 269.4   27
c 
c  seconds         irredundant          redundant clauses agility   height
c          variables clauses conflicts large binary ternary    glue         MB
c 
c blkd: 3 bces, 4778 removed, 2077022 resolutions, 5740776 steps
c blkd: 4777 blocking literals 1%, 0 pure
c cces: 3 cces, 823 eliminated, 823 ate 100%, 0 abce 0%
c cces: 19802 probed, 1 lifted, 2 failed
c clff: 3 cliffs, 0 lifted, 1 failed
c clff: 12884 decisions, 25009367 steps
c clls: 1 sat, 0 simp, 0 freeze, 0 melt
c clls: 2201199 add, 0 assume,, 0 deref, 0 failed
c clls: 0 cassume, 0 mosat
c coll: 19 gcs, 0 rescored clauses
c cgrs: 3 count, 372925 esteps, 88243 csteps
c cgrs: 0 eqs, 0 units
c cgrs: 0 matched (0 ands 0%, 0 xors 0%, 0 ites 0%)
c cgrs: 0 simplified (0 ands 0%, 0 xors 0%, 0 ites 0%)
c cgrs: 2332 extracted (1997 ands 86%, 335 xors 14%, 0 ites 0%)
c dcps: 4 decompositions, 68593 equivalent 30%
c decs: 230680 decision, 226 random 0.098%
c decs: 50549 flipped 21.913% (in 67 phases)
c elms: 3 elims, 8236 eliminated 4%
c elms: 8236 small 100%, 0 large 0%
c elms: 36528 tried small, 8236 succeeded 23%, 28292 failed 77%
c elms: 0 subsumed, 0 strengthened, 0 blocked
c elms: 479087 copies, 330848 resolutions, 977234 ipos
c elms: 0 subchks, 0 strchks
c frcs: 0 computed, 22.5 - 77.5 average min-cut range
c gaus: 3 extractions, 169223 extracted, 2.0 size, 3 max
c gaus: exported 0 units, 2 binary and 0 ternary equations
c gaus: 0 gc, 10000174 steps, 5000087 extr 50%, 2480283 elim 25%
c glue: 7.6 avg, 2.7 scaled avg
c glue: 0 maxredglue=15 (0%)
c lift: 3 phases, 576 probed (192 level1 33%, 384 level2 67%)
c lift: 0 units, 1 equivalences, 0 implications
c hbrs: 30400 hbrs = 30400 trn 100% + 0 lrg 0%, 20 sub 0%
c lrnd: 10132 clauses, 6070 uips 60%, 23.3 length, 7.6 glue
c ints: 510 luby (67094 steps), 0 inout (0 steps)
c mins: 236297 learned lits, 5% minimized
c move: moved 5601, 825 binary 15%, 4776 ternary 85%
c otfs: str 504 dyn (447 red, 57 irr) 89 drv 18%, 415 rst 82%
c otfs: sub 3 dyn (3 red, 0 irr)
c phas: 2 computed, 11100 set, 1409 pos (13%), 9691 neg (87%)
c prbs: 3 basic, 3361 probed, 1 failed, 0 lifted
c prps: 32084678 props, 99 props/dec
c prps: 71% srch, 29% simp, 0% lkhd
c psns: 1011938 searches, 122504 hits, 12% hit rate
c queu: 31768 new, 10300 del, 120 maximum priority
c queu: 21448 merged, 12269 collected, 4 gcs
c queu: 10636 deprioritized, 21.3 lines on average
c reds: 3 count, 0 reset, 3 acts 100%, 0 exp 0%
c reds: 3 arithmetic 100%, 3 double 100%
c rmbd: 11 removed, 1 red 9%
c rsts: 474 restarts 93%, 35 skipped 7%
c rsts: 64 kept 13.5% average 41.6%
c simp: 3 count (0 ilim 0%, 0 plim 0%, 3 clim 100%)
c trnr: 3 count, 5 bin, 312 trn, 8506096 steps
c tops: 104182 fixed 45%, 0 iterations
c trds: 6 transitive reductions, 55 removed, 0 failed
c trds: 1231 nodes, 1682 edges, 874108 steps
c unhd: 3 count, 3 rounds, 3653705 steps
c unhd: 0 non-trivial sccs of average size 0.0
c unhd: 0 units, 0 bin, 0 trn, 0 lrg
c unhd: 1 failed, 1 stamp, 0 lits, 0 bin, 0 trn, 0 lrg
c unhd: 23968 tauts, 1 bin 0%, 568 trn 2%, 13 lrg 0%
c unhd: 23968 tauts, 23386 stamp 98%, 1809 red 8%
c unhd: 0 hbrs, 0 trn 0%, 0 lrg 0%, 0 red 0%
c unhd: 1486 strd, 0 bin 0%, 4 trn 0%, 1482 lrg 100%, 1485 red 100%
c vars: 50022 remaining 22% and 181011 removed 78% out of 231033
c vars: 104182 fixed 45%, 8236 eliminated 4%, 68593 equivalent 30%
c vsts: 158010845 visits, 73% srch, 27% simp, 0% lkhd
c vsts: 5.1 search visits per propagation 11351.2 per conflict
c wchs: 13857637 pushed, 5592433 enlarged, 32 defrags
c 
c scaledglue  added       reduced       forcing      resolved     conflicts
c 
c all      9025 100      4583 100     69993 100     18044 100      1513 100
c 
c  0          0   0         0   0         0   0         0   0         0   0 
c  1         76   1        31   1       609   1       139   1         3   0 
c  2       2990  33      1666  36     28831  41      5095  28       282  19 
c  3       3490  39<     1612  35<    32001  46<     7827  43<      748  49<
c  4       1633  18       778  17      7132  10      3475  19       364  24 
c  5        534   6       318   7       908   1       946   5        68   4 
c  6        179   2        87   2       324   0       324   2        20   1 
c  7         65   1        50   1       105   0       123   1        14   1 
c  8         32   0        22   0        51   0        75   0        10   1 
c  9         21   0        16   0        27   0        35   0         4   0 
c 10          4   0         3   0         4   0         4   0         0   0 
c 11          1   0         0   0         1   0         1   0         0   0 
c 12          0   0         0   0         0   0         0   0         0   0 
c 13          0   0         0   0         0   0         0   0         0   0 
c 14          0   0         0   0         0   0         0   0         0   0 
c 15          0   0         0   0         0   0         0   0         0   0 
c 
c avg             3.1           3.1           2.7           3.1           3.3
c std             1.1           1.2           0.8           1.1           1.0
c 
c 230680 decisions, 10221 conflicts, 487.7 conflicts/sec
c 32084678 propagations, 1.5 megaprops/sec
c 21.0 seconds, 48.8 MB
c 
c    1.076   5% analysis
c    0.768   4% block
c    0.064   0% bump
c    0.000   0% card
c    1.976   9% cce
c    1.456   7% cliff
c    0.028   0% cutwidth
c    0.276   1% decide
c    0.000   0% force
c    1.416   7% gc
c    0.576   3% cgrclsr
c    0.716   3% decomp
c    0.404   2% defrag
c    4.748  23% elim
c    1.692   8% gauss
c    0.500   2% lift
c    0.136   1% mincls
c    0.080   0% phase
c    0.260   1% probe
c    0.020   0% reduce
c    0.452   2% restart
c    0.220   1% ternres
c    0.100   0% transred
c    0.604   3% unhide
c ==================================
c    0.036   0% preprocessing     0%
c   13.677  65% inprocessing    100%
c ==================================
c   13.713  65% simplifying
c    0.000   0% lookahead
c    7.228  34% search
c ==================================
c   20.957 100% all
c
s SATISFIABLE
